Maximize
F - f1 - f2

Subject to
F - 2y34 - 6y59 - 4y88 - 2y118 - 2y177 - 6y74 - 6y184 - 6y93 - 6y135 - 2y75 - 4y85 - 2y171 - 2y21 - 6y86 - 4y154 - 6y58 - 2y46 - 8y149 - 8y106 - 6y36 - 2y64 - 6y109 - 4y97 = 0
f1 - 0.005827s34 - 0.005827s59 - 0.005827s88 - 0.005827s118 - 0.005827s177 - 0.005827s74 - 0.005827s184 - 0.005827s93 - 0.005827s135 - 0.005827s75 - 0.005827s85 - 0.005827s171 - 0.005827s21 - 0.005827s86 - 0.005827s154 - 0.005827s58 - 0.005827s46 - 0.005827s149 - 0.005827s106 - 0.005827s36 - 0.005827s64 - 0.005827s109 - 0.005827s97  = 0
f2 - 3.45y34 - 3.39y59 - 3.02y88 - 2.48y118 - 1.97y177 - 2.45y74 - 2.62y184 - 1.81y93 - 1.91y135 - 1.65y75 - 1.68y85 - 1.35y171 - 1.15y21 - 1.14y86 - 1.50y154 - 0.84y58 - 0.40y46 - 0.45y149 - 0.25y106 - 0.20y36 - 0.55y64 - 0.67y109 - 1.89y97 = 0

x164x177x1 + x164x74x1 + x164x184x1 + x164x171x1 + x164x21x1 + x164x154x1 + x164x58x1 + x164x149x1 + x164x106x1 + x164x36x1 + x164x109x1 
<= 2
x3x171x1 + x3x21x1 + x3x154x1 + x3x58x1 + x3x149x1 + x3x106x1 + x3x36x1 + x3x109x1 
<= 1
x150x171x1 + x150x21x1 + x150x154x1 + x150x58x1 + x150x149x1 + x150x106x1 + x150x36x1 + x150x109x1 
<= 2
x173x177x1 + x173x74x1 + x173x184x1 + x173x171x1 + x173x21x1 + x173x154x1 + x173x58x1 + x173x149x1 + x173x106x1 + x173x36x1 + x173x109x1 
<= 1
x76x86x2 + x76x154x2 + x76x46x2 + x76x106x2 + x76x64x2 
<= 1
x134x93x2 + x134x75x2 + x134x85x2 + x134x86x2 + x134x154x2 + x134x46x2 + x134x106x2 + x134x64x2 
<= 1
x9x86x2 + x9x154x2 + x9x46x2 + x9x106x2 + x9x64x2 
<= 2
x130x86x2 + x130x154x2 + x130x46x2 + x130x106x2 + x130x64x2 
<= 2

x55x88x3 + x55x177x3 + x55x74x3 + x55x93x3 + x55x135x3 + x55x85x3 + x55x171x3 + x55x21x3 + x55x64x3 + x55x109x3 + x55x97x3 
<= 2
x76x171x3 + x76x21x3 + x76x64x3 + x76x109x3 + x76x97x3 
<= 1
x3x93x3 + x3x85x3 + x3x171x3 + x3x21x3 + x3x64x3 + x3x109x3 + x3x97x3 
<= 1
x173x177x3 + x173x74x3 + x173x93x3 + x173x135x3 + x173x85x3 + x173x171x3 + x173x21x3 + x173x64x3 + x173x109x3 + x173x97x3 
<= 1
x134x93x3 + x134x135x3 + x134x85x3 + x134x171x3 + x134x21x3 + x134x64x3 + x134x109x3 + x134x97x3 
<= 1


- x34x86x2 - x34x154x2 - x34x46x2 - x34x106x2 - x34x64x2 
= 0



- x59x171x1 - x59x21x1 - x59x154x1 - x59x58x1 - x59x149x1 - x59x106x1 - x59x36x1 - x59x109x1 
= 0





- x88x85x2 - x88x86x2 - x88x154x2 - x88x46x2 - x88x106x2 - x88x64x2 
= 0
x55x88x3 
- x88x0x3
- x88x85x3 - x88x171x3 - x88x21x3 - x88x64x3 - x88x109x3 - x88x97x3 
= 0


- x118x171x1 - x118x21x1 - x118x154x1 - x118x58x1 - x118x149x1 - x118x106x1 - x118x36x1 - x118x109x1 
= 0

- x118x93x2 - x118x75x2 - x118x85x2 - x118x86x2 - x118x154x2 - x118x46x2 - x118x106x2 - x118x64x2 
= 0


x164x177x1 + x173x177x1 
- x177x0x1
- x177x171x1 - x177x21x1 - x177x154x1 - x177x58x1 - x177x149x1 - x177x106x1 - x177x36x1 - x177x109x1 
= 0

x55x177x3 + x173x177x3 
- x177x0x3
- x177x93x3 - x177x135x3 - x177x85x3 - x177x171x3 - x177x21x3 - x177x64x3 - x177x109x3 - x177x97x3 
= 0

x164x74x1 + x173x74x1 
- x74x0x1
- x74x171x1 - x74x21x1 - x74x154x1 - x74x58x1 - x74x149x1 - x74x106x1 - x74x36x1 - x74x109x1 
= 0

x55x74x3 + x173x74x3 
- x74x0x3
- x74x135x3 - x74x85x3 - x74x171x3 - x74x21x3 - x74x64x3 - x74x109x3 - x74x97x3 
= 0

x164x184x1 + x173x184x1 
- x184x0x1
- x184x171x1 - x184x21x1 - x184x154x1 - x184x58x1 - x184x149x1 - x184x106x1 - x184x36x1 - x184x109x1 
= 0




x134x93x2 + x118x93x2 
- x93x0x2
- x93x75x2 - x93x85x2 - x93x86x2 - x93x154x2 - x93x46x2 - x93x106x2 - x93x64x2 
= 0
x55x93x3 + x3x93x3 + x173x93x3 + x134x93x3 + x177x93x3 
- x93x0x3
- x93x85x3 - x93x171x3 - x93x21x3 - x93x64x3 - x93x109x3 - x93x97x3 
= 0



x55x135x3 + x173x135x3 + x134x135x3 + x177x135x3 + x74x135x3 
- x135x0x3
- x135x85x3 - x135x171x3 - x135x21x3 - x135x64x3 - x135x109x3 - x135x97x3 
= 0


x134x75x2 + x118x75x2 + x93x75x2 
- x75x0x2
- x75x86x2 - x75x154x2 - x75x46x2 - x75x106x2 - x75x64x2 
= 0



x134x85x2 + x88x85x2 + x118x85x2 + x93x85x2 
- x85x0x2
- x85x86x2 - x85x154x2 - x85x46x2 - x85x106x2 - x85x64x2 
= 0
x55x85x3 + x3x85x3 + x173x85x3 + x134x85x3 + x88x85x3 + x177x85x3 + x74x85x3 + x93x85x3 + x135x85x3 
- x85x0x3
- x85x171x3 - x85x21x3 - x85x64x3 - x85x109x3 - x85x97x3 
= 0

x164x171x1 + x3x171x1 + x150x171x1 + x173x171x1 + x59x171x1 + x118x171x1 + x177x171x1 + x74x171x1 + x184x171x1 
- x171x0x1
- x171x21x1 - x171x154x1 - x171x58x1 - x171x149x1 - x171x106x1 - x171x36x1 - x171x109x1 
= 0

x55x171x3 + x76x171x3 + x3x171x3 + x173x171x3 + x134x171x3 + x88x171x3 + x177x171x3 + x74x171x3 + x93x171x3 + x135x171x3 + x85x171x3 
- x171x0x3
- x171x21x3 - x171x64x3 - x171x109x3 - x171x97x3 
= 0

x164x21x1 + x3x21x1 + x150x21x1 + x173x21x1 + x59x21x1 + x118x21x1 + x177x21x1 + x74x21x1 + x184x21x1 + x171x21x1 
- x21x0x1
- x21x58x1 - x21x149x1 - x21x106x1 - x21x36x1 - x21x109x1 
= 0

x55x21x3 + x76x21x3 + x3x21x3 + x173x21x3 + x134x21x3 + x88x21x3 + x177x21x3 + x74x21x3 + x93x21x3 + x135x21x3 + x85x21x3 + x171x21x3 
- x21x0x3
- x21x64x3 - x21x109x3 - x21x97x3 
= 0


x76x86x2 + x134x86x2 + x9x86x2 + x130x86x2 + x34x86x2 + x88x86x2 + x118x86x2 + x93x86x2 + x75x86x2 + x85x86x2 
- x86x0x2
- x86x46x2 - x86x106x2 - x86x64x2 
= 0


x164x154x1 + x3x154x1 + x150x154x1 + x173x154x1 + x59x154x1 + x118x154x1 + x177x154x1 + x74x154x1 + x184x154x1 + x171x154x1 
- x154x0x1
- x154x149x1 - x154x106x1 - x154x36x1 - x154x109x1 
= 0
x76x154x2 + x134x154x2 + x9x154x2 + x130x154x2 + x34x154x2 + x88x154x2 + x118x154x2 + x93x154x2 + x75x154x2 + x85x154x2 
- x154x0x2
- x154x46x2 - x154x106x2 - x154x64x2 
= 0


x164x58x1 + x3x58x1 + x150x58x1 + x173x58x1 + x59x58x1 + x118x58x1 + x177x58x1 + x74x58x1 + x184x58x1 + x171x58x1 + x21x58x1 
- x58x0x1
- x58x149x1 - x58x106x1 - x58x36x1 - x58x109x1 
= 0




x76x46x2 + x134x46x2 + x9x46x2 + x130x46x2 + x34x46x2 + x88x46x2 + x118x46x2 + x93x46x2 + x75x46x2 + x85x46x2 + x86x46x2 + x154x46x2 
- x46x0x2
- x46x64x2 
= 0


x164x149x1 + x3x149x1 + x150x149x1 + x173x149x1 + x59x149x1 + x118x149x1 + x177x149x1 + x74x149x1 + x184x149x1 + x171x149x1 + x21x149x1 + x154x149x1 + x58x149x1 
- x149x0x1

= 0



x164x106x1 + x3x106x1 + x150x106x1 + x173x106x1 + x59x106x1 + x118x106x1 + x177x106x1 + x74x106x1 + x184x106x1 + x171x106x1 + x21x106x1 + x154x106x1 + x58x106x1 
- x106x0x1

= 0
x76x106x2 + x134x106x2 + x9x106x2 + x130x106x2 + x34x106x2 + x88x106x2 + x118x106x2 + x93x106x2 + x75x106x2 + x85x106x2 + x86x106x2 + x154x106x2 
- x106x0x2

= 0


x164x36x1 + x3x36x1 + x150x36x1 + x173x36x1 + x59x36x1 + x118x36x1 + x177x36x1 + x74x36x1 + x184x36x1 + x171x36x1 + x21x36x1 + x154x36x1 + x58x36x1 
- x36x0x1

= 0




x76x64x2 + x134x64x2 + x9x64x2 + x130x64x2 + x34x64x2 + x88x64x2 + x118x64x2 + x93x64x2 + x75x64x2 + x85x64x2 + x86x64x2 + x154x64x2 + x46x64x2 
- x64x0x2

= 0
x55x64x3 + x76x64x3 + x3x64x3 + x173x64x3 + x134x64x3 + x88x64x3 + x177x64x3 + x74x64x3 + x93x64x3 + x135x64x3 + x85x64x3 + x171x64x3 + x21x64x3 
- x64x0x3

= 0

x164x109x1 + x3x109x1 + x150x109x1 + x173x109x1 + x59x109x1 + x118x109x1 + x177x109x1 + x74x109x1 + x184x109x1 + x171x109x1 + x21x109x1 + x154x109x1 + x58x109x1 
- x109x0x1

= 0

x55x109x3 + x76x109x3 + x3x109x3 + x173x109x3 + x134x109x3 + x88x109x3 + x177x109x3 + x74x109x3 + x93x109x3 + x135x109x3 + x85x109x3 + x171x109x3 + x21x109x3 
- x109x0x3

= 0



x55x97x3 + x76x97x3 + x3x97x3 + x173x97x3 + x134x97x3 + x88x97x3 + x177x97x3 + x74x97x3 + x93x97x3 + x135x97x3 + x85x97x3 + x171x97x3 + x21x97x3 
- x97x0x3

= 0

2y34 = 0
2y59 = 0
1y88 = 0
1y88 - x55x88x3 = 0
1y118 = 0
1y118 = 0
1y177 - x164x177x1 - x173x177x1 = 0
1y177 - x55x177x3 - x173x177x3 = 0
1y74 - x164x74x1 - x173x74x1 = 0
1y74 - x55x74x3 - x173x74x3 = 0
2y184 - x164x184x1 - x173x184x1 = 0
1y93 - x134x93x2 - x118x93x2 = 0
1y93 - x55x93x3 - x3x93x3 - x173x93x3 - x134x93x3 - x177x93x3 = 0
2y135 - x55x135x3 - x173x135x3 - x134x135x3 - x177x135x3 - x74x135x3 = 0
2y75 - x134x75x2 - x118x75x2 - x93x75x2 = 0
1y85 - x134x85x2 - x88x85x2 - x118x85x2 - x93x85x2 = 0
1y85 - x55x85x3 - x3x85x3 - x173x85x3 - x134x85x3 - x88x85x3 - x177x85x3 - x74x85x3 - x93x85x3 - x135x85x3 = 0
1y171 - x164x171x1 - x3x171x1 - x150x171x1 - x173x171x1 - x59x171x1 - x118x171x1 - x177x171x1 - x74x171x1 - x184x171x1 = 0
1y171 - x55x171x3 - x76x171x3 - x3x171x3 - x173x171x3 - x134x171x3 - x88x171x3 - x177x171x3 - x74x171x3 - x93x171x3 - x135x171x3 - x85x171x3 = 0
1y21 - x164x21x1 - x3x21x1 - x150x21x1 - x173x21x1 - x59x21x1 - x118x21x1 - x177x21x1 - x74x21x1 - x184x21x1 - x171x21x1 = 0
1y21 - x55x21x3 - x76x21x3 - x3x21x3 - x173x21x3 - x134x21x3 - x88x21x3 - x177x21x3 - x74x21x3 - x93x21x3 - x135x21x3 - x85x21x3 - x171x21x3 = 0
2y86 - x76x86x2 - x134x86x2 - x9x86x2 - x130x86x2 - x34x86x2 - x88x86x2 - x118x86x2 - x93x86x2 - x75x86x2 - x85x86x2 = 0
1y154 - x164x154x1 - x3x154x1 - x150x154x1 - x173x154x1 - x59x154x1 - x118x154x1 - x177x154x1 - x74x154x1 - x184x154x1 - x171x154x1 = 0
1y154 - x76x154x2 - x134x154x2 - x9x154x2 - x130x154x2 - x34x154x2 - x88x154x2 - x118x154x2 - x93x154x2 - x75x154x2 - x85x154x2 = 0
2y58 - x164x58x1 - x3x58x1 - x150x58x1 - x173x58x1 - x59x58x1 - x118x58x1 - x177x58x1 - x74x58x1 - x184x58x1 - x171x58x1 - x21x58x1 = 0
2y46 - x76x46x2 - x134x46x2 - x9x46x2 - x130x46x2 - x34x46x2 - x88x46x2 - x118x46x2 - x93x46x2 - x75x46x2 - x85x46x2 - x86x46x2 - x154x46x2 = 0
2y149 - x164x149x1 - x3x149x1 - x150x149x1 - x173x149x1 - x59x149x1 - x118x149x1 - x177x149x1 - x74x149x1 - x184x149x1 - x171x149x1 - x21x149x1 - x154x149x1 - x58x149x1 = 0
1y106 - x164x106x1 - x3x106x1 - x150x106x1 - x173x106x1 - x59x106x1 - x118x106x1 - x177x106x1 - x74x106x1 - x184x106x1 - x171x106x1 - x21x106x1 - x154x106x1 - x58x106x1 = 0
1y106 - x76x106x2 - x134x106x2 - x9x106x2 - x130x106x2 - x34x106x2 - x88x106x2 - x118x106x2 - x93x106x2 - x75x106x2 - x85x106x2 - x86x106x2 - x154x106x2 = 0
2y36 - x164x36x1 - x3x36x1 - x150x36x1 - x173x36x1 - x59x36x1 - x118x36x1 - x177x36x1 - x74x36x1 - x184x36x1 - x171x36x1 - x21x36x1 - x154x36x1 - x58x36x1 = 0
1y64 - x76x64x2 - x134x64x2 - x9x64x2 - x130x64x2 - x34x64x2 - x88x64x2 - x118x64x2 - x93x64x2 - x75x64x2 - x85x64x2 - x86x64x2 - x154x64x2 - x46x64x2 = 0
1y64 - x55x64x3 - x76x64x3 - x3x64x3 - x173x64x3 - x134x64x3 - x88x64x3 - x177x64x3 - x74x64x3 - x93x64x3 - x135x64x3 - x85x64x3 - x171x64x3 - x21x64x3 = 0
1y109 - x164x109x1 - x3x109x1 - x150x109x1 - x173x109x1 - x59x109x1 - x118x109x1 - x177x109x1 - x74x109x1 - x184x109x1 - x171x109x1 - x21x109x1 - x154x109x1 - x58x109x1 = 0
1y109 - x55x109x3 - x76x109x3 - x3x109x3 - x173x109x3 - x134x109x3 - x88x109x3 - x177x109x3 - x74x109x3 - x93x109x3 - x135x109x3 - x85x109x3 - x171x109x3 - x21x109x3 = 0
2y97 - x55x97x3 - x76x97x3 - x3x97x3 - x173x97x3 - x134x97x3 - x88x97x3 - x177x97x3 - x74x97x3 - x93x97x3 - x135x97x3 - x85x97x3 - x171x97x3 - x21x97x3 = 0

s55 - s88 + 6.467418z55z88z3 <= 5.09
s55 - s177 + 6.459182z55z177z3 <= 5.09
s55 - s74 + 6.499743z55z74z3 <= 5.09
s55 - s93 + 6.449480z55z93z3 <= 5.09
s55 - s135 + 6.531221z55z135z3 <= 5.09
s55 - s85 + 6.547287z55z85z3 <= 5.09
s55 - s171 + 6.543760z55z171z3 <= 5.09
s55 - s21 + 6.519089z55z21z3 <= 5.09
s55 - s64 + 6.590900z55z64z3 <= 5.09
s55 - s109 + 6.834031z55z109z3 <= 5.09
s55 - s97 + 6.725307z55z97z3 <= 5.09
s164 - s177 + 6.763318z164z177z1 <= 5.43
s164 - s74 + 6.874058z164z74z1 <= 5.43
s164 - s184 + 6.887055z164z184z1 <= 5.43
s164 - s171 + 6.792198z164z171z1 <= 5.43
s164 - s21 + 6.723880z164z21z1 <= 5.43
s164 - s154 + 6.989345z164z154z1 <= 5.43
s164 - s58 + 6.764182z164z58z1 <= 5.43
s164 - s149 + 6.808249z164z149z1 <= 5.43
s164 - s106 + 7.036292z164z106z1 <= 5.43
s164 - s36 + 7.029519z164z36z1 <= 5.43
s164 - s109 + 7.092444z164z109z1 <= 5.43
s76 - s171 + 7.307836z76z171z3 <= 5.96
s76 - s21 + 7.231395z76z21z3 <= 5.96
s76 - s86 + 7.479249z76z86z2 <= 5.96
s76 - s154 + 7.509894z76z154z2 <= 5.96
s76 - s46 + 7.372694z76z46z2 <= 5.96
s76 - s106 + 7.532523z76z106z2 <= 5.96
s76 - s64 + 7.241321z76z64z2 <= 5.96
s76 - s64 + 7.241321z76z64z3 <= 5.96
s76 - s109 + 7.597631z76z109z3 <= 5.96
s76 - s97 + 7.597701z76z97z3 <= 5.96
s3 - s93 + 7.038423z3z93z3 <= 5.68
s3 - s85 + 7.147103z3z85z3 <= 5.68
s3 - s171 + 7.086790z3z171z1 <= 5.68
s3 - s171 + 7.086790z3z171z3 <= 5.68
s3 - s21 + 7.007682z3z21z1 <= 5.68
s3 - s21 + 7.007682z3z21z3 <= 5.68
s3 - s154 + 7.289515z3z154z1 <= 5.68
s3 - s58 + 7.034006z3z58z1 <= 5.68
s3 - s149 + 7.062205z3z149z1 <= 5.68
s3 - s106 + 7.298007z3z106z1 <= 5.68
s3 - s36 + 7.289258z3z36z1 <= 5.68
s3 - s64 + 7.005131z3z64z3 <= 5.68
s3 - s109 + 7.368874z3z109z1 <= 5.68
s3 - s109 + 7.368874z3z109z3 <= 5.68
s3 - s97 + 7.379947z3z97z3 <= 5.68
s150 - s171 + 7.107005z150z171z1 <= 5.93
s150 - s21 + 7.060526z150z21z1 <= 5.93
s150 - s154 + 7.296906z150z154z1 <= 5.93
s150 - s58 + 7.113283z150z58z1 <= 5.93
s150 - s149 + 7.173530z150z149z1 <= 5.93
s150 - s106 + 7.371743z150z106z1 <= 5.93
s150 - s36 + 7.367466z150z36z1 <= 5.93
s150 - s109 + 7.412279z150z109z1 <= 5.93
s173 - s177 + 6.896474z173z177z1 <= 5.55
s173 - s177 + 6.896474z173z177z3 <= 5.55
s173 - s74 + 7.023474z173z74z1 <= 5.55
s173 - s74 + 7.023474z173z74z3 <= 5.55
s173 - s184 + 7.046834z173z184z1 <= 5.55
s173 - s93 + 6.850814z173z93z3 <= 5.55
s173 - s135 + 6.956885z173z135z3 <= 5.55
s173 - s85 + 6.930234z173z85z3 <= 5.55
s173 - s171 + 6.857824z173z171z1 <= 5.55
s173 - s171 + 6.857824z173z171z3 <= 5.55
s173 - s21 + 6.776765z173z21z1 <= 5.55
s173 - s21 + 6.776765z173z21z3 <= 5.55
s173 - s154 + 7.051243z173z154z1 <= 5.55
s173 - s58 + 6.778035z173z58z1 <= 5.55
s173 - s149 + 6.783238z173z149z1 <= 5.55
s173 - s106 + 7.014376z173z106z1 <= 5.55
s173 - s36 + 7.004117z173z36z1 <= 5.55
s173 - s64 + 6.732087z173z64z3 <= 5.55
s173 - s109 + 7.097682z173z109z1 <= 5.55
s173 - s109 + 7.097682z173z109z3 <= 5.55
s173 - s97 + 7.152845z173z97z3 <= 5.55
s134 - s93 + 6.998806z134z93z2 <= 5.79
s134 - s93 + 6.998806z134z93z3 <= 5.79
s134 - s135 + 7.123200z134z135z3 <= 5.79
s134 - s75 + 7.040511z134z75z2 <= 5.79
s134 - s85 + 7.109026z134z85z2 <= 5.79
s134 - s85 + 7.109026z134z85z3 <= 5.79
s134 - s171 + 7.052721z134z171z3 <= 5.79
s134 - s21 + 6.978562z134z21z3 <= 5.79
s134 - s86 + 7.225328z134z86z2 <= 5.79
s134 - s154 + 7.254280z134z154z2 <= 5.79
s134 - s46 + 7.130000z134z46z2 <= 5.79
s134 - s106 + 7.287505z134z106z2 <= 5.79
s134 - s64 + 7.003020z134z64z2 <= 5.79
s134 - s64 + 7.003020z134z64z3 <= 5.79
s134 - s109 + 7.346976z134z109z3 <= 5.79
s134 - s97 + 7.341765z134z97z3 <= 5.79
s9 - s86 + 7.482983z9z86z2 <= 5.96
s9 - s154 + 7.532713z9z154z2 <= 5.96
s9 - s46 + 7.329805z9z46z2 <= 5.96
s9 - s106 + 7.483280z9z106z2 <= 5.96
s9 - s64 + 7.210954z9z64z2 <= 5.96
s130 - s86 + 7.472814z130z86z2 <= 5.96
s130 - s154 + 7.523520z130z154z2 <= 5.96
s130 - s46 + 7.317771z130z46z2 <= 5.96
s130 - s106 + 7.470338z130z106z2 <= 5.96
s130 - s64 + 7.200924z130z64z2 <= 5.96
s34 - s86 + 7.693781z34z86z2 <= 6.21
s34 - s154 + 7.678188z34z154z2 <= 6.21
s34 - s46 + 7.708754z34z46z2 <= 6.21
s34 - s106 + 7.824239z34z106z2 <= 6.21
s34 - s64 + 7.634631z34z64z2 <= 6.21
s59 - s171 + 7.636228z59z171z1 <= 6.32
s59 - s21 + 7.652866z59z21z1 <= 6.32
s59 - s154 + 7.721387z59z154z1 <= 6.32
s59 - s58 + 7.702042z59z58z1 <= 6.32
s59 - s149 + 7.764322z59z149z1 <= 6.32
s59 - s106 + 7.888585z59z106z1 <= 6.32
s59 - s36 + 7.889834z59z36z1 <= 6.32
s59 - s109 + 7.883205z59z109z1 <= 6.32
s88 - s85 + 8.218683z88z85z2 <= 7.00
s88 - s85 + 8.218683z88z85z3 <= 7.00
s88 - s171 + 8.278488z88z171z3 <= 7.00
s88 - s21 + 8.331595z88z21z3 <= 7.00
s88 - s86 + 8.325098z88z86z2 <= 7.00
s88 - s154 + 8.281267z88z154z2 <= 7.00
s88 - s46 + 8.422743z88z46z2 <= 7.00
s88 - s106 + 8.478562z88z106z2 <= 7.00
s88 - s64 + 8.417878z88z64z2 <= 7.00
s88 - s64 + 8.417878z88z64z3 <= 7.00
s88 - s109 + 8.449098z88z109z3 <= 7.00
s88 - s97 + 8.278408z88z97z3 <= 7.00
s118 - s93 + 7.869342z118z93z2 <= 6.76
s118 - s75 + 7.888236z118z75z2 <= 6.76
s118 - s85 + 7.906667z118z85z2 <= 6.76
s118 - s171 + 7.936005z118z171z1 <= 6.76
s118 - s21 + 7.967632z118z21z1 <= 6.76
s118 - s86 + 8.050441z118z86z2 <= 6.76
s118 - s154 + 8.034874z118z154z1 <= 6.76
s118 - s154 + 8.034874z118z154z2 <= 6.76
s118 - s58 + 8.010954z118z58z1 <= 6.76
s118 - s46 + 8.091797z118z46z2 <= 6.76
s118 - s149 + 8.070770z118z149z1 <= 6.76
s118 - s106 + 8.187136z118z106z1 <= 6.76
s118 - s106 + 8.187136z118z106z2 <= 6.76
s118 - s36 + 8.187967z118z36z1 <= 6.76
s118 - s64 + 8.057022z118z64z2 <= 6.76
s118 - s109 + 8.188848z118z109z1 <= 6.76
s177 - s93 + 8.056667z177z93z3 <= 7.01
s177 - s135 + 8.095375z177z135z3 <= 7.01
s177 - s85 + 8.099443z177z85z3 <= 7.01
s177 - s171 + 8.109107z177z171z1 <= 7.01
s177 - s171 + 8.109107z177z171z3 <= 7.01
s177 - s21 + 8.144990z177z21z1 <= 7.01
s177 - s21 + 8.144990z177z21z3 <= 7.01
s177 - s154 + 8.247394z177z154z1 <= 7.01
s177 - s58 + 8.184484z177z58z1 <= 7.01
s177 - s149 + 8.243334z177z149z1 <= 7.01
s177 - s106 + 8.370556z177z106z1 <= 7.01
s177 - s36 + 8.370062z177z36z1 <= 7.01
s177 - s64 + 8.232811z177z64z3 <= 7.01
s177 - s109 + 8.385352z177z109z1 <= 7.01
s177 - s109 + 8.385352z177z109z3 <= 7.01
s177 - s97 + 8.316957z177z97z3 <= 7.01
s74 - s135 + 8.159691z74z135z3 <= 7.07
s74 - s85 + 8.197367z74z85z3 <= 7.07
s74 - s171 + 8.262297z74z171z1 <= 7.07
s74 - s171 + 8.262297z74z171z3 <= 7.07
s74 - s21 + 8.325169z74z21z1 <= 7.07
s74 - s21 + 8.325169z74z21z3 <= 7.07
s74 - s154 + 8.270998z74z154z1 <= 7.07
s74 - s58 + 8.353627z74z58z1 <= 7.07
s74 - s149 + 8.403334z74z149z1 <= 7.07
s74 - s106 + 8.458273z74z106z1 <= 7.07
s74 - s36 + 8.462145z74z36z1 <= 7.07
s74 - s64 + 8.406914z74z64z3 <= 7.07
s74 - s109 + 8.436666z74z109z1 <= 7.07
s74 - s109 + 8.436666z74z109z3 <= 7.07
s74 - s97 + 8.295586z74z97z3 <= 7.07
s184 - s171 + 8.290101z184z171z1 <= 7.07
s184 - s21 + 8.351030z184z21z1 <= 7.07
s184 - s154 + 8.290000z184z154z1 <= 7.07
s184 - s58 + 8.380984z184z58z1 <= 7.07
s184 - s149 + 8.431355z184z149z1 <= 7.07
s184 - s106 + 8.483226z184z106z1 <= 7.07
s184 - s36 + 8.487506z184z36z1 <= 7.07
s184 - s109 + 8.457184z184z109z1 <= 7.07
s93 - s75 + 8.163749z93z75z2 <= 7.11
s93 - s85 + 8.227945z93z85z2 <= 7.11
s93 - s85 + 8.227945z93z85z3 <= 7.11
s93 - s171 + 8.204281z93z171z3 <= 7.11
s93 - s21 + 8.209107z93z21z3 <= 7.11
s93 - s86 + 8.367250z93z86z2 <= 7.11
s93 - s154 + 8.378742z93z154z2 <= 7.11
s93 - s46 + 8.353311z93z46z2 <= 7.11
s93 - s106 + 8.476121z93z106z2 <= 7.11
s93 - s64 + 8.298798z93z64z2 <= 7.11
s93 - s64 + 8.298798z93z64z3 <= 7.11
s93 - s109 + 8.503559z93z109z3 <= 7.11
s93 - s97 + 8.456474z93z97z3 <= 7.11
s135 - s85 + 8.197712z135z85z3 <= 7.16
s135 - s171 + 8.267703z135z171z3 <= 7.16
s135 - s21 + 8.341107z135z21z3 <= 7.16
s135 - s64 + 8.415169z135z64z3 <= 7.16
s135 - s109 + 8.465940z135z109z3 <= 7.16
s135 - s97 + 8.381910z135z97z3 <= 7.16
s75 - s86 + 8.393524z75z86z2 <= 7.19
s75 - s154 + 8.407664z75z154z2 <= 7.19
s75 - s46 + 8.394505z75z46z2 <= 7.19
s75 - s106 + 8.505877z75z106z2 <= 7.19
s75 - s64 + 8.369506z75z64z2 <= 7.19
s85 - s171 + 8.314535z85z171z3 <= 7.24
s85 - s21 + 8.393478z85z21z3 <= 7.24
s85 - s86 + 8.387573z85z86z2 <= 7.24
s85 - s154 + 8.390849z85z154z2 <= 7.24
s85 - s46 + 8.444070z85z46z2 <= 7.24
s85 - s106 + 8.520713z85z106z2 <= 7.24
s85 - s64 + 8.461610z85z64z2 <= 7.24
s85 - s64 + 8.461610z85z64z3 <= 7.24
s85 - s109 + 8.526744z85z109z3 <= 7.24
s85 - s97 + 8.472857z85z97z3 <= 7.24
s171 - s21 + 8.452462z171z21z1 <= 7.37
s171 - s21 + 8.452462z171z21z3 <= 7.37
s171 - s154 + 8.572759z171z154z1 <= 7.37
s171 - s58 + 8.462856z171z58z1 <= 7.37
s171 - s149 + 8.511735z171z149z1 <= 7.37
s171 - s106 + 8.641948z171z106z1 <= 7.37
s171 - s36 + 8.639650z171z36z1 <= 7.37
s171 - s64 + 8.517572z171z64z3 <= 7.37
s171 - s109 + 8.675286z171z109z1 <= 7.37
s171 - s109 + 8.675286z171z109z3 <= 7.37
s171 - s97 + 8.667620z171z97z3 <= 7.37
s21 - s58 + 8.673748z21z58z1 <= 7.62
s21 - s149 + 8.736428z21z149z1 <= 7.62
s21 - s106 + 8.936157z21z106z1 <= 7.62
s21 - s36 + 8.930770z21z36z1 <= 7.62
s21 - s64 + 8.709691z21z64z3 <= 7.62
s21 - s109 + 8.988782z21z109z1 <= 7.62
s21 - s109 + 8.988782z21z109z3 <= 7.62
s21 - s97 + 9.000058z21z97z3 <= 7.62
s86 - s46 + 8.904484z86z46z2 <= 7.73
s86 - s106 + 8.885063z86z106z2 <= 7.73
s86 - s64 + 9.002029z86z64z2 <= 7.73
s154 - s46 + 9.009351z154z46z2 <= 7.77
s154 - s149 + 9.056666z154z149z1 <= 7.77
s154 - s106 + 8.984683z154z106z1 <= 7.77
s154 - s106 + 8.984683z154z106z2 <= 7.77
s154 - s36 + 8.992810z154z36z1 <= 7.77
s154 - s64 + 9.093385z154z64z2 <= 7.77
s154 - s109 + 8.937862z154z109z1 <= 7.77
s58 - s149 + 8.883245z58z149z1 <= 7.82
s58 - s106 + 9.092112z58z106z1 <= 7.82
s58 - s36 + 9.085498z58z36z1 <= 7.82
s58 - s109 + 9.154996z58z109z1 <= 7.82
s46 - s64 + 9.152330z46z64z2 <= 8.02

x55x88x3 - 1z55z88z3 <= 0
x55x177x3 - 1z55z177z3 <= 0
x55x74x3 - 1z55z74z3 <= 0
x55x93x3 - 1z55z93z3 <= 0
x55x135x3 - 2z55z135z3 <= 0
x55x85x3 - 1z55z85z3 <= 0
x55x171x3 - 1z55z171z3 <= 0
x55x21x3 - 1z55z21z3 <= 0
x55x64x3 - 1z55z64z3 <= 0
x55x109x3 - 1z55z109z3 <= 0
x55x97x3 - 2z55z97z3 <= 0
x164x177x1 - 1z164z177z1 <= 0
x164x74x1 - 1z164z74z1 <= 0
x164x184x1 - 2z164z184z1 <= 0
x164x171x1 - 1z164z171z1 <= 0
x164x21x1 - 1z164z21z1 <= 0
x164x154x1 - 1z164z154z1 <= 0
x164x58x1 - 2z164z58z1 <= 0
x164x149x1 - 2z164z149z1 <= 0
x164x106x1 - 1z164z106z1 <= 0
x164x36x1 - 2z164z36z1 <= 0
x164x109x1 - 1z164z109z1 <= 0
x76x171x3 - 1z76z171z3 <= 0
x76x21x3 - 1z76z21z3 <= 0
x76x86x2 - 2z76z86z2 <= 0
x76x154x2 - 1z76z154z2 <= 0
x76x46x2 - 2z76z46z2 <= 0
x76x106x2 - 1z76z106z2 <= 0
x76x64x2 - 1z76z64z2 <= 0
x76x64x3 - 1z76z64z3 <= 0
x76x109x3 - 1z76z109z3 <= 0
x76x97x3 - 2z76z97z3 <= 0
x3x93x3 - 1z3z93z3 <= 0
x3x85x3 - 1z3z85z3 <= 0
x3x171x1 - 1z3z171z1 <= 0
x3x171x3 - 1z3z171z3 <= 0
x3x21x1 - 1z3z21z1 <= 0
x3x21x3 - 1z3z21z3 <= 0
x3x154x1 - 1z3z154z1 <= 0
x3x58x1 - 2z3z58z1 <= 0
x3x149x1 - 2z3z149z1 <= 0
x3x106x1 - 1z3z106z1 <= 0
x3x36x1 - 2z3z36z1 <= 0
x3x64x3 - 1z3z64z3 <= 0
x3x109x1 - 1z3z109z1 <= 0
x3x109x3 - 1z3z109z3 <= 0
x3x97x3 - 2z3z97z3 <= 0
x150x171x1 - 1z150z171z1 <= 0
x150x21x1 - 1z150z21z1 <= 0
x150x154x1 - 1z150z154z1 <= 0
x150x58x1 - 2z150z58z1 <= 0
x150x149x1 - 2z150z149z1 <= 0
x150x106x1 - 1z150z106z1 <= 0
x150x36x1 - 2z150z36z1 <= 0
x150x109x1 - 1z150z109z1 <= 0
x173x177x1 - 1z173z177z1 <= 0
x173x177x3 - 1z173z177z3 <= 0
x173x74x1 - 1z173z74z1 <= 0
x173x74x3 - 1z173z74z3 <= 0
x173x184x1 - 2z173z184z1 <= 0
x173x93x3 - 1z173z93z3 <= 0
x173x135x3 - 2z173z135z3 <= 0
x173x85x3 - 1z173z85z3 <= 0
x173x171x1 - 1z173z171z1 <= 0
x173x171x3 - 1z173z171z3 <= 0
x173x21x1 - 1z173z21z1 <= 0
x173x21x3 - 1z173z21z3 <= 0
x173x154x1 - 1z173z154z1 <= 0
x173x58x1 - 2z173z58z1 <= 0
x173x149x1 - 2z173z149z1 <= 0
x173x106x1 - 1z173z106z1 <= 0
x173x36x1 - 2z173z36z1 <= 0
x173x64x3 - 1z173z64z3 <= 0
x173x109x1 - 1z173z109z1 <= 0
x173x109x3 - 1z173z109z3 <= 0
x173x97x3 - 2z173z97z3 <= 0
x134x93x2 - 1z134z93z2 <= 0
x134x93x3 - 1z134z93z3 <= 0
x134x135x3 - 2z134z135z3 <= 0
x134x75x2 - 2z134z75z2 <= 0
x134x85x2 - 1z134z85z2 <= 0
x134x85x3 - 1z134z85z3 <= 0
x134x171x3 - 1z134z171z3 <= 0
x134x21x3 - 1z134z21z3 <= 0
x134x86x2 - 2z134z86z2 <= 0
x134x154x2 - 1z134z154z2 <= 0
x134x46x2 - 2z134z46z2 <= 0
x134x106x2 - 1z134z106z2 <= 0
x134x64x2 - 1z134z64z2 <= 0
x134x64x3 - 1z134z64z3 <= 0
x134x109x3 - 1z134z109z3 <= 0
x134x97x3 - 2z134z97z3 <= 0
x9x86x2 - 2z9z86z2 <= 0
x9x154x2 - 1z9z154z2 <= 0
x9x46x2 - 2z9z46z2 <= 0
x9x106x2 - 1z9z106z2 <= 0
x9x64x2 - 1z9z64z2 <= 0
x130x86x2 - 2z130z86z2 <= 0
x130x154x2 - 1z130z154z2 <= 0
x130x46x2 - 2z130z46z2 <= 0
x130x106x2 - 1z130z106z2 <= 0
x130x64x2 - 1z130z64z2 <= 0
x34x86x2 - 2z34z86z2 <= 0
x34x154x2 - 1z34z154z2 <= 0
x34x46x2 - 2z34z46z2 <= 0
x34x106x2 - 1z34z106z2 <= 0
x34x64x2 - 1z34z64z2 <= 0
x34x0x2 <= 2
x59x171x1 - 1z59z171z1 <= 0
x59x21x1 - 1z59z21z1 <= 0
x59x154x1 - 1z59z154z1 <= 0
x59x58x1 - 2z59z58z1 <= 0
x59x149x1 - 2z59z149z1 <= 0
x59x106x1 - 1z59z106z1 <= 0
x59x36x1 - 2z59z36z1 <= 0
x59x109x1 - 1z59z109z1 <= 0
x59x0x1 <= 2
x88x85x2 - 1z88z85z2 <= 0
x88x85x3 - 1z88z85z3 <= 0
x88x171x3 - 1z88z171z3 <= 0
x88x21x3 - 1z88z21z3 <= 0
x88x86x2 - 2z88z86z2 <= 0
x88x154x2 - 1z88z154z2 <= 0
x88x46x2 - 2z88z46z2 <= 0
x88x106x2 - 1z88z106z2 <= 0
x88x64x2 - 1z88z64z2 <= 0
x88x64x3 - 1z88z64z3 <= 0
x88x109x3 - 1z88z109z3 <= 0
x88x97x3 - 2z88z97z3 <= 0
x88x0x2 <= 1
x88x0x3 <= 1
x118x93x2 - 1z118z93z2 <= 0
x118x75x2 - 2z118z75z2 <= 0
x118x85x2 - 1z118z85z2 <= 0
x118x171x1 - 1z118z171z1 <= 0
x118x21x1 - 1z118z21z1 <= 0
x118x86x2 - 2z118z86z2 <= 0
x118x154x1 - 1z118z154z1 <= 0
x118x154x2 - 1z118z154z2 <= 0
x118x58x1 - 2z118z58z1 <= 0
x118x46x2 - 2z118z46z2 <= 0
x118x149x1 - 2z118z149z1 <= 0
x118x106x1 - 1z118z106z1 <= 0
x118x106x2 - 1z118z106z2 <= 0
x118x36x1 - 2z118z36z1 <= 0
x118x64x2 - 1z118z64z2 <= 0
x118x109x1 - 1z118z109z1 <= 0
x118x0x1 <= 1
x118x0x2 <= 1
x177x93x3 - 1z177z93z3 <= 0
x177x135x3 - 2z177z135z3 <= 0
x177x85x3 - 1z177z85z3 <= 0
x177x171x1 - 1z177z171z1 <= 0
x177x171x3 - 1z177z171z3 <= 0
x177x21x1 - 1z177z21z1 <= 0
x177x21x3 - 1z177z21z3 <= 0
x177x154x1 - 1z177z154z1 <= 0
x177x58x1 - 2z177z58z1 <= 0
x177x149x1 - 2z177z149z1 <= 0
x177x106x1 - 1z177z106z1 <= 0
x177x36x1 - 2z177z36z1 <= 0
x177x64x3 - 1z177z64z3 <= 0
x177x109x1 - 1z177z109z1 <= 0
x177x109x3 - 1z177z109z3 <= 0
x177x97x3 - 2z177z97z3 <= 0
x177x0x1 <= 1
x177x0x3 <= 1
x74x135x3 - 2z74z135z3 <= 0
x74x85x3 - 1z74z85z3 <= 0
x74x171x1 - 1z74z171z1 <= 0
x74x171x3 - 1z74z171z3 <= 0
x74x21x1 - 1z74z21z1 <= 0
x74x21x3 - 1z74z21z3 <= 0
x74x154x1 - 1z74z154z1 <= 0
x74x58x1 - 2z74z58z1 <= 0
x74x149x1 - 2z74z149z1 <= 0
x74x106x1 - 1z74z106z1 <= 0
x74x36x1 - 2z74z36z1 <= 0
x74x64x3 - 1z74z64z3 <= 0
x74x109x1 - 1z74z109z1 <= 0
x74x109x3 - 1z74z109z3 <= 0
x74x97x3 - 2z74z97z3 <= 0
x74x0x1 <= 1
x74x0x3 <= 1
x184x171x1 - 1z184z171z1 <= 0
x184x21x1 - 1z184z21z1 <= 0
x184x154x1 - 1z184z154z1 <= 0
x184x58x1 - 2z184z58z1 <= 0
x184x149x1 - 2z184z149z1 <= 0
x184x106x1 - 1z184z106z1 <= 0
x184x36x1 - 2z184z36z1 <= 0
x184x109x1 - 1z184z109z1 <= 0
x184x0x1 <= 2
x93x75x2 - 2z93z75z2 <= 0
x93x85x2 - 1z93z85z2 <= 0
x93x85x3 - 1z93z85z3 <= 0
x93x171x3 - 1z93z171z3 <= 0
x93x21x3 - 1z93z21z3 <= 0
x93x86x2 - 2z93z86z2 <= 0
x93x154x2 - 1z93z154z2 <= 0
x93x46x2 - 2z93z46z2 <= 0
x93x106x2 - 1z93z106z2 <= 0
x93x64x2 - 1z93z64z2 <= 0
x93x64x3 - 1z93z64z3 <= 0
x93x109x3 - 1z93z109z3 <= 0
x93x97x3 - 2z93z97z3 <= 0
x93x0x2 <= 1
x93x0x3 <= 1
x135x85x3 - 1z135z85z3 <= 0
x135x171x3 - 1z135z171z3 <= 0
x135x21x3 - 1z135z21z3 <= 0
x135x64x3 - 1z135z64z3 <= 0
x135x109x3 - 1z135z109z3 <= 0
x135x97x3 - 2z135z97z3 <= 0
x135x0x3 <= 2
x75x86x2 - 2z75z86z2 <= 0
x75x154x2 - 1z75z154z2 <= 0
x75x46x2 - 2z75z46z2 <= 0
x75x106x2 - 1z75z106z2 <= 0
x75x64x2 - 1z75z64z2 <= 0
x75x0x2 <= 2
x85x171x3 - 1z85z171z3 <= 0
x85x21x3 - 1z85z21z3 <= 0
x85x86x2 - 2z85z86z2 <= 0
x85x154x2 - 1z85z154z2 <= 0
x85x46x2 - 2z85z46z2 <= 0
x85x106x2 - 1z85z106z2 <= 0
x85x64x2 - 1z85z64z2 <= 0
x85x64x3 - 1z85z64z3 <= 0
x85x109x3 - 1z85z109z3 <= 0
x85x97x3 - 2z85z97z3 <= 0
x85x0x2 <= 1
x85x0x3 <= 1
x171x21x1 - 1z171z21z1 <= 0
x171x21x3 - 1z171z21z3 <= 0
x171x154x1 - 1z171z154z1 <= 0
x171x58x1 - 2z171z58z1 <= 0
x171x149x1 - 2z171z149z1 <= 0
x171x106x1 - 1z171z106z1 <= 0
x171x36x1 - 2z171z36z1 <= 0
x171x64x3 - 1z171z64z3 <= 0
x171x109x1 - 1z171z109z1 <= 0
x171x109x3 - 1z171z109z3 <= 0
x171x97x3 - 2z171z97z3 <= 0
x171x0x1 <= 1
x171x0x3 <= 1
x21x58x1 - 2z21z58z1 <= 0
x21x149x1 - 2z21z149z1 <= 0
x21x106x1 - 1z21z106z1 <= 0
x21x36x1 - 2z21z36z1 <= 0
x21x64x3 - 1z21z64z3 <= 0
x21x109x1 - 1z21z109z1 <= 0
x21x109x3 - 1z21z109z3 <= 0
x21x97x3 - 2z21z97z3 <= 0
x21x0x1 <= 1
x21x0x3 <= 1
x86x46x2 - 2z86z46z2 <= 0
x86x106x2 - 1z86z106z2 <= 0
x86x64x2 - 1z86z64z2 <= 0
x86x0x2 <= 2
x154x46x2 - 2z154z46z2 <= 0
x154x149x1 - 2z154z149z1 <= 0
x154x106x1 - 1z154z106z1 <= 0
x154x106x2 - 1z154z106z2 <= 0
x154x36x1 - 2z154z36z1 <= 0
x154x64x2 - 1z154z64z2 <= 0
x154x109x1 - 1z154z109z1 <= 0
x154x0x1 <= 1
x154x0x2 <= 1
x58x149x1 - 2z58z149z1 <= 0
x58x106x1 - 1z58z106z1 <= 0
x58x36x1 - 2z58z36z1 <= 0
x58x109x1 - 1z58z109z1 <= 0
x58x0x1 <= 2
x46x64x2 - 1z46z64z2 <= 0
x46x0x2 <= 2
x149x0x1 <= 2
x106x0x1 <= 1
x106x0x2 <= 1
x36x0x1 <= 2
x64x0x2 <= 1
x64x0x3 <= 1
x109x0x1 <= 1
x109x0x3 <= 1
x97x0x3 <= 2

Bounds
s55 = 5.085551
s164 = 5.429186
s76 = 5.956521
s3 = 5.684022
s150 = 5.933160
s173 = 5.550000
s134 = 5.790000
s9 = 5.960000
s130 = 5.960000
6.000000 <= s34 <= 6.210000
6.000000 <= s59 <= 6.320000
6.000000 <= s88 <= 7.000000
6.000000 <= s118 <= 6.760000
6.010000 <= s177 <= 7.010000
6.070000 <= s74 <= 7.070000
6.070000 <= s184 <= 7.070000
6.110000 <= s93 <= 7.110000
6.160000 <= s135 <= 7.160000
6.190000 <= s75 <= 7.190000
6.240000 <= s85 <= 7.240000
6.370000 <= s171 <= 7.370000
6.620000 <= s21 <= 7.620000
6.730000 <= s86 <= 7.730000
6.770000 <= s154 <= 7.770000
6.820000 <= s58 <= 7.820000
7.020000 <= s46 <= 8.020000
7.110000 <= s149 <= 8.110000
7.160000 <= s106 <= 8.160000
7.170000 <= s36 <= 8.170000
7.180000 <= s64 <= 8.180000
7.250000 <= s109 <= 8.250000
7.280000 <= s97 <= 8.280000

General
x55x88x3 x55x177x3 x55x74x3 x55x93x3 x55x135x3 x55x85x3 x55x171x3 x55x21x3 x55x64x3 x55x109x3 x55x97x3 
x164x177x1 x164x74x1 x164x184x1 x164x171x1 x164x21x1 x164x154x1 x164x58x1 x164x149x1 x164x106x1 x164x36x1 x164x109x1 
x76x171x3 x76x21x3 x76x86x2 x76x154x2 x76x46x2 x76x106x2 x76x64x2 x76x64x3 x76x109x3 x76x97x3 
x3x93x3 x3x85x3 x3x171x1 x3x171x3 x3x21x1 x3x21x3 x3x154x1 x3x58x1 x3x149x1 x3x106x1 x3x36x1 x3x64x3 x3x109x1 x3x109x3 x3x97x3 
x150x171x1 x150x21x1 x150x154x1 x150x58x1 x150x149x1 x150x106x1 x150x36x1 x150x109x1 
x173x177x1 x173x177x3 x173x74x1 x173x74x3 x173x184x1 x173x93x3 x173x135x3 x173x85x3 x173x171x1 x173x171x3 x173x21x1 x173x21x3 x173x154x1 x173x58x1 x173x149x1 x173x106x1 x173x36x1 x173x64x3 x173x109x1 x173x109x3 x173x97x3 
x134x93x2 x134x93x3 x134x135x3 x134x75x2 x134x85x2 x134x85x3 x134x171x3 x134x21x3 x134x86x2 x134x154x2 x134x46x2 x134x106x2 x134x64x2 x134x64x3 x134x109x3 x134x97x3 
x9x86x2 x9x154x2 x9x46x2 x9x106x2 x9x64x2 
x130x86x2 x130x154x2 x130x46x2 x130x106x2 x130x64x2 
x34x86x2 x34x154x2 x34x46x2 x34x106x2 x34x64x2 x34x0x2 
x59x171x1 x59x21x1 x59x154x1 x59x58x1 x59x149x1 x59x106x1 x59x36x1 x59x109x1 x59x0x1 
x88x85x2 x88x85x3 x88x171x3 x88x21x3 x88x86x2 x88x154x2 x88x46x2 x88x106x2 x88x64x2 x88x64x3 x88x109x3 x88x97x3 x88x0x2 x88x0x3 
x118x93x2 x118x75x2 x118x85x2 x118x171x1 x118x21x1 x118x86x2 x118x154x1 x118x154x2 x118x58x1 x118x46x2 x118x149x1 x118x106x1 x118x106x2 x118x36x1 x118x64x2 x118x109x1 x118x0x1 x118x0x2 
x177x93x3 x177x135x3 x177x85x3 x177x171x1 x177x171x3 x177x21x1 x177x21x3 x177x154x1 x177x58x1 x177x149x1 x177x106x1 x177x36x1 x177x64x3 x177x109x1 x177x109x3 x177x97x3 x177x0x1 x177x0x3 
x74x135x3 x74x85x3 x74x171x1 x74x171x3 x74x21x1 x74x21x3 x74x154x1 x74x58x1 x74x149x1 x74x106x1 x74x36x1 x74x64x3 x74x109x1 x74x109x3 x74x97x3 x74x0x1 x74x0x3 
x184x171x1 x184x21x1 x184x154x1 x184x58x1 x184x149x1 x184x106x1 x184x36x1 x184x109x1 x184x0x1 
x93x75x2 x93x85x2 x93x85x3 x93x171x3 x93x21x3 x93x86x2 x93x154x2 x93x46x2 x93x106x2 x93x64x2 x93x64x3 x93x109x3 x93x97x3 x93x0x2 x93x0x3 
x135x85x3 x135x171x3 x135x21x3 x135x64x3 x135x109x3 x135x97x3 x135x0x3 
x75x86x2 x75x154x2 x75x46x2 x75x106x2 x75x64x2 x75x0x2 
x85x171x3 x85x21x3 x85x86x2 x85x154x2 x85x46x2 x85x106x2 x85x64x2 x85x64x3 x85x109x3 x85x97x3 x85x0x2 x85x0x3 
x171x21x1 x171x21x3 x171x154x1 x171x58x1 x171x149x1 x171x106x1 x171x36x1 x171x64x3 x171x109x1 x171x109x3 x171x97x3 x171x0x1 x171x0x3 
x21x58x1 x21x149x1 x21x106x1 x21x36x1 x21x64x3 x21x109x1 x21x109x3 x21x97x3 x21x0x1 x21x0x3 
x86x46x2 x86x106x2 x86x64x2 x86x0x2 
x154x46x2 x154x149x1 x154x106x1 x154x106x2 x154x36x1 x154x64x2 x154x109x1 x154x0x1 x154x0x2 
x58x149x1 x58x106x1 x58x36x1 x58x109x1 x58x0x1 
x46x64x2 x46x0x2 
x149x0x1 
x106x0x1 x106x0x2 
x36x0x1 
x64x0x2 x64x0x3 
x109x0x1 x109x0x3 
x97x0x3 

Binaries
y34 y59 y88 y118 y177 y74 y184 y93 y135 y75 y85 y171 y21 y86 y154 y58 y46 y149 y106 y36 y64 y109 y97 
z55z88z3 z55z177z3 z55z74z3 z55z93z3 z55z135z3 z55z85z3 z55z171z3 z55z21z3 z55z64z3 z55z109z3 z55z97z3 
z164z177z1 z164z74z1 z164z184z1 z164z171z1 z164z21z1 z164z154z1 z164z58z1 z164z149z1 z164z106z1 z164z36z1 z164z109z1 
z76z171z3 z76z21z3 z76z86z2 z76z154z2 z76z46z2 z76z106z2 z76z64z2 z76z64z3 z76z109z3 z76z97z3 
z3z93z3 z3z85z3 z3z171z1 z3z171z3 z3z21z1 z3z21z3 z3z154z1 z3z58z1 z3z149z1 z3z106z1 z3z36z1 z3z64z3 z3z109z1 z3z109z3 z3z97z3 
z150z171z1 z150z21z1 z150z154z1 z150z58z1 z150z149z1 z150z106z1 z150z36z1 z150z109z1 
z173z177z1 z173z177z3 z173z74z1 z173z74z3 z173z184z1 z173z93z3 z173z135z3 z173z85z3 z173z171z1 z173z171z3 z173z21z1 z173z21z3 z173z154z1 z173z58z1 z173z149z1 z173z106z1 z173z36z1 z173z64z3 z173z109z1 z173z109z3 z173z97z3 
z134z93z2 z134z93z3 z134z135z3 z134z75z2 z134z85z2 z134z85z3 z134z171z3 z134z21z3 z134z86z2 z134z154z2 z134z46z2 z134z106z2 z134z64z2 z134z64z3 z134z109z3 z134z97z3 
z9z86z2 z9z154z2 z9z46z2 z9z106z2 z9z64z2 
z130z86z2 z130z154z2 z130z46z2 z130z106z2 z130z64z2 
z34z86z2 z34z154z2 z34z46z2 z34z106z2 z34z64z2 
z59z171z1 z59z21z1 z59z154z1 z59z58z1 z59z149z1 z59z106z1 z59z36z1 z59z109z1 
z88z85z2 z88z85z3 z88z171z3 z88z21z3 z88z86z2 z88z154z2 z88z46z2 z88z106z2 z88z64z2 z88z64z3 z88z109z3 z88z97z3 
z118z93z2 z118z75z2 z118z85z2 z118z171z1 z118z21z1 z118z86z2 z118z154z1 z118z154z2 z118z58z1 z118z46z2 z118z149z1 z118z106z1 z118z106z2 z118z36z1 z118z64z2 z118z109z1 
z177z93z3 z177z135z3 z177z85z3 z177z171z1 z177z171z3 z177z21z1 z177z21z3 z177z154z1 z177z58z1 z177z149z1 z177z106z1 z177z36z1 z177z64z3 z177z109z1 z177z109z3 z177z97z3 
z74z135z3 z74z85z3 z74z171z1 z74z171z3 z74z21z1 z74z21z3 z74z154z1 z74z58z1 z74z149z1 z74z106z1 z74z36z1 z74z64z3 z74z109z1 z74z109z3 z74z97z3 
z184z171z1 z184z21z1 z184z154z1 z184z58z1 z184z149z1 z184z106z1 z184z36z1 z184z109z1 
z93z75z2 z93z85z2 z93z85z3 z93z171z3 z93z21z3 z93z86z2 z93z154z2 z93z46z2 z93z106z2 z93z64z2 z93z64z3 z93z109z3 z93z97z3 
z135z85z3 z135z171z3 z135z21z3 z135z64z3 z135z109z3 z135z97z3 
z75z86z2 z75z154z2 z75z46z2 z75z106z2 z75z64z2 
z85z171z3 z85z21z3 z85z86z2 z85z154z2 z85z46z2 z85z106z2 z85z64z2 z85z64z3 z85z109z3 z85z97z3 
z171z21z1 z171z21z3 z171z154z1 z171z58z1 z171z149z1 z171z106z1 z171z36z1 z171z64z3 z171z109z1 z171z109z3 z171z97z3 
z21z58z1 z21z149z1 z21z106z1 z21z36z1 z21z64z3 z21z109z1 z21z109z3 z21z97z3 
z86z46z2 z86z106z2 z86z64z2 
z154z46z2 z154z149z1 z154z106z1 z154z106z2 z154z36z1 z154z64z2 z154z109z1 
z58z149z1 z58z106z1 z58z36z1 z58z109z1 
z46z64z2 







End